1409
1500000
982042
982042
982042
982042
979973
979973
979973
979973
979973
979973
979286
979286
979286
979286
979286
979286
979286
979286
979286
979286
979286
979286
979286
979286
979286
972413
972413
972413
972413
972413
972413
972413
972413
972413
972413
972413
972413
972413
972413
972413
972413
972413
967724
967724
967724
967724
967724
967724
967724
967724
967724
967724
967724
967724
967724
967724
967724
967724
967724
967724
940720
940720
940720
940720
940720
940720
940720
940720
940720
940720
938913
938913
938913
938913
938913
938913
938913
938913
938913
938913
938913
938913
938913
938913
938913
933444
933444
933444
933444
933444
933444
933444
933444
933444
932411
932411
932411
932411
932411
932411
932411
932411
932411
932411
932411
932411
932411
932411
931838
931838
931838
931838
931838
931838
931838
931838
931838
929143
929143
929143
929143
929143
929143
929143
929143
929143
929143
929143
929143
929143
929143
929143
929143
929143
929143
929143
923370
923370
923370
923370
923370
923370
918989
918989
918989
918989
918989
918989
918989
918989
918989
918989
911189
911189
911189
911189
911189
911189
911189
911189
911189
911189
911189
895496
895496
895496
895496
895496
895496
895496
895496
895496
895496
895496
889356
889356
889356
889356
889356
889356
889356
889356
889356
889356
887621
887621
887621
887621
887621
887621
887621
887621
887621
887621
887621
887621
887621
887621
887621
887621
887621
887621
887621
881956
881713
881713
881713
881713
881713
881713
881713
881713
881713
881713
881713
881713
881713
881713
881713
881713
881713
881713
881713
881713
881627
881627
881627
881627
881627
881627
881627
881627
881627
881627
881627
881627
881627
881627
881627
881627
878261
878261
878261
878261
878261
878261
878261
878261
878261
878261
878261
878261
878261
878261
878261
878261
864261
864261
858030
858030
858030
858030
858030
835878
835878
835878
835878
835878
835878
835878
835878
835878
835878
835878
835878
835878
835878
835878
833044
833044
833044
833044
831826
831826
831826
831826
831826
831826
831826
831826
831826
831826
831826
831826
831826
831826
831826
831826
831826
831826
830971
830971
830971
830971
830971
830971
830971
830971
825766
825766
825766
825766
825766
825766
825766
825766
825766
820451
820451
820451
818211
818211
818211
818211
818211
818211
814911
814911
814911
814911
814911
814911
814911
814911
814911
814911
814911
814911
814911
814911
814911
814911
807572
807572
807572
807572
807572
807572
807572
807572
807572
807572
807572
807572
807572
801760
801760
801760
800233
800233
800233
800233
800233
800233
800233
800233
800233
800233
800233
800233
800233
800233
800233
797644
797644
797644
797644
797644
797644
797644
797644
797644
797644
797644
797644
797644
797644
797644
797644
796651
796651
796651
796651
796651
796651
796651
796651
796651
796651
788751
788751
788751
788751
788688
788688
788688
788688
788688
788688
788634
788634
788634
788634
788634
788634
788634
788634
788634
788634
788634
788634
783197
783197
783197
783197
783197
783197
783197
783197
783197
783197
782449
782449
782449
782449
782449
782449
782449
782449
782449
782449
782449
782449
781783
781783
781783
781783
781783
781783
781783
781783
781783
781783
781783
781783
781783
781783
781783
781783
781783
773138
773138
773138
767776
767776
767776
767776
767776
767776
767776
767776
767776
767776
766685
766685
766685
766685
766685
766685
766685
766685
766685
766685
766685
766685
765924
765924
765924
765924
765924
765924
765924
765924
765924
765924
765924
765924
765924
765924
765924
765924
765924
765924
765924
765924
765173
765173
765173
765173
765173
765173
764915
764915
764915
764915
764915
764915
764915
764915
764915
764379
764379
764379
764379
764379
753319
753319
741132
741132
739586
739586
739586
739586
739586
739586
739586
739586
739586
739586
737684
737684
737684
737684
737684
737684
737684
737684
737684
737684
733516
733516
733516
733516
733516
733516
733516
733516
733516
733516
733516
733516
733516
733516
733516
716921
716921
716921
716921
716921
716921
716921
716921
716921
716921
716921
716921
716921
716921
716921
716921
716921
716921
716921
694638
694638
694638
694638
694638
694638
694638
694638
694638
694638
694638
694638
694638
694638
694638
694638
694638
694638
694638
689108
689108
689108
689108
689108
689108
687500
687500
687500
687500
687500
683345
683345
683345
683345
683345
683345
683345
683345
683345
683345
683345
683345
683345
683345
679776
679776
679776
679776
679776
679776
679776
679776
679776
679776
679776
679776
679776
679776
679776
679776
679776
679776
679776
679776
676664
676664
676664
676664
676664
676664
676664
676664
676664
676664
676664
676664
676664
676664
676664
676664
676664
676664
676664
676664
669666
669666
669666
669666
669666
669666
669666
669666
669666
667835
667835
667835
667835
667835
667835
667835
667835
667835
667835
667835
667835
667835
662223
662223
662223
662223
662223
662223
662223
662223
662223
662223
662223
662223
657592
657592
657592
657592
657592
657592
657592
657592
657592
657592
657592
657592
657592
657592
657592
657592
647575
647575
647575
647575
647575
647575
647575
647575
647575
647575
647575
647575
637012
637012
637012
637012
637012
637012
637012
637012
637012
637012
637012
637012
637012
637012
637012
637012
637012
637012
637012
634750
634750
634750
634750
634750
634750
634750
634750
634750
629604
629604
629604
629604
629604
629604
629604
629604
629604
629604
629604
629604
629604
629604
629604
629604
629604
618149
618149
618149
618149
618149
618149
618149
618149
618149
618149
618149
618149
618149
618149
616053
616053
616053
616053
616053
616053
616053
616053
616053
616053
616053
616053
616053
616053
616053
616053
613051
613051
613051
613051
613051
613051
613051
613051
613051
613051
610350
610350
610350
610350
610350
610350
610350
606139
606139
606139
606139
606139
606139
587635
587635
587635
587635
587635
587635
587635
587635
587635
587635
587635
587635
587635
587635
587635
587635
587635
587635
584097
584097
584097
584097
584097
584097
584097
584097
584097
584097
584097
570561
570561
570561
570561
570561
570561
570561
570561
570561
570561
570561
570561
570561
570561
570561
569797
569797
569797
569797
569797
569797
569797
569012
569012
569012
569012
569012
569012
569012
569012
569012
569012
569012
569012
569012
569012
569012
569012
566794
566794
566794
566794
566794
566794
566794
566794
566794
566794
566794
566794
558339
558339
558339
558339
558339
558339
558339
558339
558339
558339
558339
558339
558339
558339
558339
558339
558339
557220
557220
557220
557220
557220
555594
555594
555594
555594
555594
555594
555594
555594
555594
555594
555594
550424
550424
550424
550424
550424
550424
550424
550424
550424
549161
549161
549161
549161
549161
549161
549161
549161
549161
549161
549161
549161
549161
549161
549161
549161
549161
549161
540195
540195
540195
540195
540195
540195
540195
540195
540195
532913
532913
532913
532913
532913
532913
532913
532913
532913
532913
532913
532913
532913
532913
532913
532913
532913
532913
529731
529731
529731
529731
529731
529731
529731
529731
529731
529731
529731
529731
529731
529731
529731
529731
529731
498595
498595
498595
498595
498595
498595
498595
497816
497816
497816
497816
497816
497816
497816
497816
497816
497605
497605
497605
497605
497605
497605
497605
497605
497605
494332
494332
494332
494332
494332
494332
494332
494332
494332
494332
494332
494332
494332
494332
494332
494332
494332
494332
492652
487674
487674
487674
487674
487674
487674
487674
487674
487674
487674
487674
487674
487674
487674
487674
487674
486433
486433
486433
486433
486433
486433
486433
486433
486433
486433
486433
486433
486433
486433
486433
486433
475730
475730
475730
475730
475730
475730
475730
475730
469783
469783
469783
469783
469783
469783
469783
469783
469783
469783
469783
458153
458153
458153
458153
458153
441700
441700
441700
441700
441700
441700
441700
441700
441700
441700
441700
441700
441700
441700
441700
432423
432423
432423
432423
432423
432423
432423
432423
432423
432423
432423
432423
432423
432423
420362
420362
420362
420362
420362
420362
420362
420362
420362
420362
420362
420362
419756
419756
419756
419756
419756
419756
419756
419756
419756
419756
419756
419756
419756
419756
419756
410215
410215
410215
410215
410215
410215
410215
410215
410215
410215
410215
410215
410215
410215
407128
407128
407128
407128
407128
407128
407128
407128
407128
401313
401313
401313
401313
401313
401313
401313
401313
401313
401313
401313
401313
401313
401313
392276
392276
392276
392276
392276
392276
392276
392276
392276
392276
392276
392276
392276
392276
390709
390709
390709
390709
390709
390709
390709
390709
390709
390709
390709
390709
390709
390709
390709
390709
390498
390498
390498
390498
390498
390498
390498
390498
390498
390498
390498
390498
390498
390498
390498
390498
390498
390498
390498
359446
359446
359446
359446
359446
336725
336725
336725
336725
336725
336725
334198
334198
334198
334198
334198
334198
334198
334198
334198
334198
334198
334198
334198
334198
334198
334198
334198
334198
334198
334198
330514
327588
327588
327588
327588
327588
327588
327588
327588
327588
324570
324570
312481
312481
312481
312481
312481
312481
312481
312481
312481
312481
312481
312481
312481
305142
305142
305142
305142
305142
305142
305142
305142
305142
305142
305142
305142
305142
305142
297770
297770
297770
297770
297770
297770
297770
297770
297770
297770
297770
297770
297770
297770
296572
296572
296572
296572
296572
296572
296572
271482
271482
271482
271482
271482
271482
271482
271482
271482
271482
271482
271482
261056
261056
261056
261056
261056
261056
261056
261056
261056
261056
261056
261056
261056
261056
261056
245390
245390
245390
245390
245390
245390
245390
245390
245390
245390
221412
221412
221412
219894
219894
219894
219894
219894
219894
219894
219894
208572
208572
208572
208572
208572
208572
202701
202701
202701
202701
202701
202701
202701
202701
202701
202701
202701
202701
